NAME : mr45
COMMENT : 45-city problem (DISC)
TYPE : TSP
DIMENSION : 45
EDGE_WEIGHT_TYPE : EUC_2D
NODE_COORD_SECTION
1 99 89
2 55 75
3 29 13
4 8 86
5 45 7
6 48 19
7 5 18
8 17 93
9 12 67
10 63 26
11 86 26
12 66 99
13 100 68
14 48 41
15 62 7
16 29 45
17 98 21
18 68 33
19 45 65
20 29 73
21 51 47
22 12 19
23 23 30
24 48 15
25 25 10
26 39 50
27 82 100
28 8 88
29 93 17
30 23 31
31 71 61
32 12 95
33 61 74
34 41 4
35 84 16
36 26 7
37 46 45
38 56 84
39 26 56
40 12 99
41 73 77
42 32 95
43 83 73
44 46 26
45 10 91
EOF
